
  16    0


   0   8 2 3 5 6 12 13 14 15 
   9   3 11 10 4 
   3   2 9 7 
   3   1 7 
   6   1 8 
   1   1 7 
   5   1 16
   3   1 16
   7   1 16
   5   1 16
   4   1 16
  10   1 16
  10   1 16
   5   1 16
  10   1 16
   0   0 
